minizinc_built_ins/set/array_set_element.fzn
% Generated by MiniZinc 2.9.4
% Solver library: 
% Command line invocation: C:\Program Files\MiniZinc\minizinc.exe -c --solver mzn-fzn array_set_element.mzn 

array [1..2] of set of int: X_INTRODUCED_1_ = [1..2,3..3];
var 1..2: i:: output_var;
var set of 1..3: s:: output_var;
constraint array_set_element(i,X_INTRODUCED_1_,s):: defines_var(s);
solve  satisfy;
