minizinc_built_ins/set/array_set_element.ozn
output ["i = ",showDzn(i),";\n","s = ",showDzn(s),";\n"];
set of int: s;
int: i;
